%chk=para_b3lyp_631gd.chk
%mem=6GB
%nprocshared=8
# B3LYP/6-31G(d) Opt Integral=UltraFine SCF=Tight

Paracetamol - B3LYP/6-31G(d) optimisation

0 1
C         -0.58993        1.42987       -0.00009
C         -0.67800        0.04361        0.00008
C          0.67019        2.03718       -0.00050
C          1.84093        1.26434       -0.00064
C          1.72892       -0.12746       -0.00048
C          0.46991       -0.73681       -0.00009
H         -1.48019        2.05039        0.00006
H          0.72115        3.12279       -0.00064
H          0.39259       -1.82057        0.00001
H          2.60152       -0.77280       -0.00084
N          3.06967        1.95654       -0.00150
C          4.34236        1.41305        0.00051
C          5.40804        2.48017       -0.00027
H          5.27705        3.14026       -0.86232
H          6.39506        2.01322       -0.06576
H          5.35236        3.05974        0.92528
O         -1.88194       -0.59436        0.00034
H         -2.58878        0.07108        0.00034
H          3.00965        2.96668       -0.00218
O          4.64191        0.22510        0.00866

