%chk=para_b3lyp_ccpvtz2.chk
%mem=3GB
%nprocshared=2
# B3LYP/cc-pVTZ Opt Integral=UltraFine SCF=Tight

Paracetamol - B3LYP/cc-pVTZ optimisation

0 1
C          1.12736       -0.01564       -0.08073
C          2.57191        0.37717        0.10325
O          2.89774        1.16820        0.98136
N          3.40197       -0.22552       -0.82475
C          4.78477       -0.01188       -1.00055
C          5.51367        0.96684       -0.31978
C          6.88320        1.12951       -0.55704
C          7.52332        0.30690       -1.47551
C          6.81605       -0.66902       -2.16364
C          5.44726       -0.82519       -1.93009
O          8.85587        0.42911       -1.73228
H          0.58667        0.13613        0.85795
H          1.03751       -1.06949       -0.35848
H          0.68269        0.60986       -0.85943
H          2.98209       -0.91928       -1.43028
H          5.04202        1.63213        0.39679
H          7.42184        1.90191       -0.01716
H          7.32729       -1.30694       -2.87887
H          4.91425       -1.59629       -2.47941
H          9.21362        1.13739       -1.17167

