%chk=para_sp_chelpg.chk
%mem=6GB
%nprocshared=4
#P B3LYP/cc-pVTZ SP Integral=UltraFine SCF=Tight Pop=CHELPG

Paracetamol: SP + CHelpG ESP charges

0 1
C         -3.96527        0.46764        0.00009
C         -2.61040       -0.21738        0.00004
O         -2.51575       -1.43115        0.00022
N         -1.53901        0.63792       -0.00027
C         -0.15889        0.34035       -0.00013
C          0.35191       -0.95817       -0.00020
C          1.72688       -1.15958       -0.00007
C          2.60912       -0.08511        0.00005
C          2.10327        1.21177        0.00007
C          0.73472        1.41589        0.00000
O          3.96889       -0.23669        0.00026
H         -4.51904        0.13813       -0.87837
H         -3.91690        1.55611        0.00099
H         -4.51964        0.13659        0.87757
H         -1.75859        1.61905       -0.00006
H         -0.32500       -1.79516       -0.00032
H          2.11090       -2.17323       -0.00001
H          2.78911        2.04704        0.00015
H          0.35351        2.43037        0.00003
H          4.18557       -1.17412       -0.00105

